75241 77133 
75615 77029 
76169 76905 
74782 77230 
75492 77055 
74059 77319 
77268 76568 
74465 77263 
75431 77080 
76279 76865 
73742 77352 
73824 77331 
73221 77411 
75099 77158 
74230 77275 
76468 76768 
76928 76715 
73615 77378 
73556 77407 
73694 77368 
72315 77497 
77468 76483 
77658 76426 
77880 76376 
76611 76748 
72212 77517 
72056 77526 
71998 77530 
75963 76966 
78420 76144 
77558 76444 
78610 76087 
76511 76766 
72866 77473 
73133 77437 
71871 77556 
71271 77580 
72641 77484 
75754 76991 
75863 76984 
75309 77108 
78905 75968 
79095 75911 
78325 76166 
78515 76109 
